(set-logic QF_ABV)
(declare-fun |z$_s7_af.gen_fifos[0].f.ff_rdPtr.Q$4$[2:0]_bv| () (_ BitVec 3))
(declare-fun z$n1sbv3_bv () (_ BitVec 3))
(declare-fun z$n0sbv3_bv () (_ BitVec 3))
(declare-fun z$l$253_op_bv () (Array (_ BitVec 3) (_ BitVec 8)))
(declare-fun z$l$253_bv () (Array (_ BitVec 3) (_ BitVec 8)))
(declare-fun z$n6sbv3_bv () (_ BitVec 3))
(declare-fun z$l$254_op_bv () (_ BitVec 8))
(declare-fun z$l$254_bv () (_ BitVec 8))
(declare-fun z$l$255_op_bv () (_ BitVec 8))
(declare-fun z$l$255_bv () (_ BitVec 8))
(declare-fun z$l$257_op_bv () (_ BitVec 8))
(declare-fun z$l$257_bv () (_ BitVec 8))
(declare-fun z$l$258_op_bv () (Array (_ BitVec 3) (_ BitVec 8)))
(declare-fun z$l$258_bv () (Array (_ BitVec 3) (_ BitVec 8)))
(declare-fun z$n152sbv8_bv () (_ BitVec 8))
(declare-fun z$l$259_op_bv () (_ BitVec 8))
(declare-fun z$l$259_bv () (_ BitVec 8))
(declare-fun z$l$262_op_bv () (_ BitVec 8))
(declare-fun z$l$262_bv () (_ BitVec 8))
(declare-fun z$l$263_op_bv () (Array (_ BitVec 3) (_ BitVec 8)))
(declare-fun z$l$263_bv () (Array (_ BitVec 3) (_ BitVec 8)))
(declare-fun z$l$269_op_bv () (Array (_ BitVec 3) (_ BitVec 8)))
(declare-fun z$l$269_bv () (Array (_ BitVec 3) (_ BitVec 8)))
(declare-fun |z$_s5_af.gen_fifos[0].f.entries_bv| () (Array (_ BitVec 3) (_ BitVec 8)))
(declare-fun z$5664_bv () Bool)
(declare-fun z$n128sbv8_bv () (_ BitVec 8))
(declare-fun z$l$78_bv () (Array (_ BitVec 3) (_ BitVec 8)))
(declare-fun z$l$81_bv () (_ BitVec 8))
(declare-fun z$l$82_op_bv () (Array (_ BitVec 3) (_ BitVec 8)))
(declare-fun z$l$82_bv () (Array (_ BitVec 3) (_ BitVec 8)))
(declare-fun z$1754_bv () (_ BitVec 8))
(declare-fun z$1755_bv () (Array (_ BitVec 3) (_ BitVec 8)))
(declare-fun z$577_bv () (Array (_ BitVec 3) (_ BitVec 8)))
(declare-fun z$l$99_bv () (Array (_ BitVec 3) (_ BitVec 8)))
(declare-fun |z$_s0_af.gen_fifos[1].f.entries_bv| () (Array (_ BitVec 3) (_ BitVec 8)))
(declare-fun z$2382_bv () Bool)
(declare-fun z$n0sbv8_bv () (_ BitVec 8))
(declare-fun z$581_bv () (_ BitVec 8))
(declare-fun z$2294_bv () (_ BitVec 8))
(declare-fun z$5789_bv () (Array (_ BitVec 3) (_ BitVec 8)))
(declare-fun z$5793_bv () (Array (_ BitVec 3) (_ BitVec 8)))
(declare-fun z$5796_bv () (_ BitVec 8))
(declare-fun z$5797_bv () (Array (_ BitVec 3) (_ BitVec 8)))
(assert
 (= z$n1sbv3_bv (_ bv1 3)))
(assert
 (= z$l$253_bv z$l$253_op_bv))
(assert
 (= z$l$254_op_bv (select z$l$253_bv z$n6sbv3_bv)))
(assert
 (= z$l$254_bv z$l$254_op_bv))
(assert
 (= z$l$255_op_bv        z$l$254_bv               ))
(assert
 (= z$l$255_bv z$l$255_op_bv))
(assert
 (= z$l$257_op_bv       z$l$255_bv            ))
(assert
 (= z$l$257_bv z$l$257_op_bv))
(assert
 (= z$l$258_op_bv (store z$l$253_bv z$n6sbv3_bv z$l$257_bv)))
(assert
 (= z$l$258_bv z$l$258_op_bv))
(assert
 (= z$n152sbv8_bv (_ bv152 8)))
(assert
 (= z$l$259_op_bv        z$n152sbv8_bv               ))
(assert
 (= z$l$259_bv z$l$259_op_bv))
(assert
 (= z$l$262_op_bv       z$l$259_bv            ))
(assert
 (= z$l$262_bv z$l$262_op_bv))
(assert
 (= z$l$263_op_bv (store z$l$258_bv z$n0sbv3_bv z$l$262_bv)))
(assert
 (= z$l$263_bv z$l$263_op_bv))
(assert
 (= z$l$269_op_bv        z$l$263_bv                        ))
(assert
 (= z$l$269_bv z$l$269_op_bv))
(assert
 (= z$5664_bv      (distinct |z$_s5_af.gen_fifos[0].f.entries_bv| z$l$269_bv)      ))
(assert
 (= z$n128sbv8_bv (_ bv128 8)))
(assert
 (let ((?x1766 (store z$l$78_bv |z$_s7_af.gen_fifos[0].f.ff_rdPtr.Q$4$[2:0]_bv| z$l$81_bv)))
 (= z$l$82_op_bv ?x1766)))
(assert
 (= z$l$82_bv z$l$82_op_bv))
(assert
               (= |z$_s5_af.gen_fifos[0].f.entries_bv| z$l$82_bv)
                      )
(assert
 (let ((?x2888 (store z$l$78_bv |z$_s7_af.gen_fifos[0].f.ff_rdPtr.Q$4$[2:0]_bv| z$1754_bv)))
 (= z$1755_bv ?x2888)))
(assert
                   (distinct |z$_s5_af.gen_fifos[0].f.entries_bv| z$1755_bv)       )
(assert
 (= z$2382_bv (= |z$_s0_af.gen_fifos[1].f.entries_bv| z$l$99_bv)))
(assert
 (                  distinct z$581_bv z$n0sbv8_bv       ))
(assert
                   (distinct z$581_bv z$n128sbv8_bv)       )
(assert
 (= z$2294_bv        z$581_bv               ))
(assert
 (= z$5789_bv        z$l$253_op_bv                       ))
(assert
 (= z$5793_bv        z$5789_bv                       ))
(assert
 (= z$5796_bv       z$2294_bv           ))
(assert
 (= z$5797_bv (store z$5793_bv z$n1sbv3_bv z$5796_bv)))
(assert
                   (distinct z$577_bv z$5797_bv)       )
(assert
               (and                                                                                                                                                                                                                                               z$5664_bv                                                                                                                                                                                                                                                                                                                     z$2382_bv                                                                                                                                                                                                                                                                                                                                                                                                                                                                                                                                                                                                                                                                                                                                                                                                                                                                                                                                                                                                                                                                                                                                                                                                                                                                                                                                                                                                                                                                                                                                                                                                                                                                                                                                                                                                                                                                                                                                                                                                                                                                                                                                                                                                                                                                                                                                                                                                                                                                                                                                                                                                                                                                                                                                                                                                                                                                                                                                                                                                                                                                                                                                                                                                                                                                                                                                                                                                                                                                                                                                                                                                                                                                                                                                                                                                                                                                                                                                                                                                )
                      )
(check-sat)
(get-model)
